Generador de Instancias/InstanciaP.lp
max: 4 * y1;
/* R1 - Capacidad de las salas de clases (Interés) */
52 x1_0_1 + 52 x1_0_2 + 52 x1_0_3 + 52 x1_0_4 + 52 x1_0_5 + 52 x1_0_6 + 52 x1_0_7 + 52 x1_0_8 + 52 x1_0_9 + 52 x1_0_10 + 52 x1_0_11 + 52 x1_0_12 + 52 x1_0_13 + 52 x1_0_14 + 52 x1_0_15 + 52 x1_0_16 + 52 x1_0_17 + 52 x1_0_18 + 52 x1_0_19 + 52 x1_0_20 + 52 x1_0_21 + 52 x1_0_22 + 52 x1_0_23 + 52 x1_0_24 + 52 x1_0_25 + 52 x1_0_26 + 52 x1_0_27 + 52 x1_0_28 + 52 x1_0_29 + 52 x1_0_30 + 52 x1_0_31 + 52 x1_0_32 + 52 x1_0_33 + 52 x1_0_34 + 52 x1_0_35 + 52 x1_0_36 + 52 x1_0_37 + 52 x1_0_38 + 52 x1_0_39 + 52 x1_0_40 + 52 x1_0_41 + 52 x1_0_42 + 52 x1_0_43 + 52 x1_0_44 + 52 x1_0_45 + 52 x1_0_46 + 52 x1_0_47 + 52 x1_0_48 + 52 x1_0_49 + 52 x1_0_50 + 52 x1_0_51 + 52 x1_0_52 + 52 x1_0_53 + 52 x1_0_54 + 52 x1_0_55 + 52 x1_0_56 + 52 x1_0_57 + 52 x1_0_58 + 52 x1_0_59 + 52 x1_0_60 + 52 x1_0_61 + 52 x1_0_62 + 52 x1_0_63 + 52 x1_0_64 + 52 x1_0_65 + 52 x1_0_66 + 52 x1_0_67 + 52 x1_0_68 + 52 x1_0_69 + 52 x1_0_70 <= 62;
/* R2 - Bloques horarios consecutivos */
x1_1_1+x1_1_2=1;
x1_1_2+x1_1_3=1;
x1_1_3+x1_1_4=1;
x1_1_4+x1_1_5=1;
x1_1_5+x1_1_6=1;
x1_1_6+x1_1_7=1;
x1_1_7+x1_1_8=1;
x1_1_8+x1_1_9=1;
x1_1_9+x1_1_10=1;
/* R3 - Asignación de bloques */
x1_1_1 + x1_1_2 + x1_1_3 + x1_1_4 + x1_1_5 + x1_1_6 + x1_1_7 + x1_1_8 + x1_1_9 + x1_1_10 + x1_1_11 + x1_1_12 + x1_1_13 + x1_1_14 + x1_1_15 + x1_1_16 + x1_1_17 + x1_1_18 + x1_1_19 + x1_1_20 + x1_1_21 + x1_1_22 + x1_1_23 + x1_1_24 + x1_1_25 + x1_1_26 + x1_1_27 + x1_1_28 + x1_1_29 + x1_1_30 + x1_1_31 + x1_1_32 + x1_1_33 + x1_1_34 + x1_1_35 = 1;
/* R4 - Disponibilidad asignatura y Activación */
y1 <= x1_1_1 + x1_1_2 + x1_1_3 + x1_1_4 + x1_1_5 + x1_1_6 + x1_1_7 + x1_1_8 + x1_1_9 + x1_1_10 + x1_1_11 + x1_1_12 + x1_1_13 + x1_1_14 + x1_1_15 + x1_1_16 + x1_1_17 + x1_1_18 + x1_1_19 + x1_1_20 + x1_1_21 + x1_1_22 + x1_1_23 + x1_1_24 + x1_1_25 + x1_1_26 + x1_1_27 + x1_1_28 + x1_1_29 + x1_1_30 + x1_1_31 + x1_1_32 + x1_1_33 + x1_1_34 + x1_1_35;
/* R6 - Tope de horario */
x1_1_1 <= 1;
x1_1_2 <= 1;
x1_1_3 <= 1;
x1_1_4 <= 1;
x1_1_5 <= 1;
x1_1_6 <= 1;
x1_1_7 <= 1;
x1_1_8 <= 1;
x1_1_9 <= 1;
x1_1_10 <= 1;
x1_1_11 <= 1;
x1_1_12 <= 1;
x1_1_13 <= 1;
x1_1_14 <= 1;
x1_1_15 <= 1;
x1_1_16 <= 1;
x1_1_17 <= 1;
x1_1_18 <= 1;
x1_1_19 <= 1;
x1_1_20 <= 1;
x1_1_21 <= 1;
x1_1_22 <= 1;
x1_1_23 <= 1;
x1_1_24 <= 1;
x1_1_25 <= 1;
x1_1_26 <= 1;
x1_1_27 <= 1;
x1_1_28 <= 1;
x1_1_29 <= 1;
x1_1_30 <= 1;
x1_1_31 <= 1;
x1_1_32 <= 1;
x1_1_33 <= 1;
x1_1_34 <= 1;
x1_1_35 <= 1;
/* R7 - Asignaturas Indispensables */
/*Horarios restringidos*/
x1_1_8 = 0;
x1_1_23 = 0;
x1_1_24 = 0;
x1_1_43 = 0;
x1_1_44 = 0;
x1_1_46 = 0;
x1_1_54 = 0;
x1_1_56 = 0;
x1_1_68 = 0;
